
Gurobi 11.0.1 (win64) logging started Tue May 14 18:59:36 2024

Set parameter LogFile to value "output/solver_log15.txt"
Gurobi Optimizer version 11.0.1 build v11.0.1rc0 (win64 - Windows 11.0 (22631.2))

CPU model: 11th Gen Intel(R) Core(TM) i7-1165G7 @ 2.80GHz, instruction set [SSE2|AVX|AVX2|AVX512]
Thread count: 4 physical cores, 8 logical processors, using up to 8 threads

Optimize a model with 1497 rows, 640 columns and 27364 nonzeros
Model fingerprint: 0xb424dd59
Variable types: 88 continuous, 552 integer (552 binary)
Coefficient statistics:
  Matrix range     [4e-01, 1e+05]
  Objective range  [1e+00, 1e+02]
  Bounds range     [1e+00, 1e+00]
  RHS range        [1e-02, 1e+05]

User MIP start produced solution with objective 58848.1 (0.00s)
User MIP start produced solution with objective 58848.1 (0.01s)
Loaded user MIP start with objective 58848.1

Presolve removed 284 rows and 288 columns
Presolve time: 0.02s
Presolved: 1213 rows, 352 columns, 24889 nonzeros
Variable types: 83 continuous, 269 integer (268 binary)

Root relaxation: objective 6.040403e+04, 582 iterations, 0.03 seconds (0.07 work units)

    Nodes    |    Current Node    |     Objective Bounds      |     Work
 Expl Unexpl |  Obj  Depth IntInf | Incumbent    BestBd   Gap | It/Node Time

     0     0 60404.0269    0   69 58848.0767 60404.0269  2.64%     -    0s
     0     0 60404.0269    0   69 58848.0767 60404.0269  2.64%     -    0s
     0     2 60404.0269    0   69 58848.0767 60404.0269  2.64%     -    0s
  1187   964 60370.7170   46   69 58848.0767 60404.0269  2.64%   213    5s
  2030  1214 59298.0438   59   67 58848.0767 60404.0269  2.64%   168   10s
  3193  1623 59695.9572   48   66 58848.0767 60404.0269  2.64%   156   15s
  5290  2618 infeasible   37      58848.0767 60404.0269  2.64%   135   20s
  6069  2779 60404.0135   34   70 58848.0767 60404.0269  2.64%   127   25s
  8189  4004 58917.0640   90   53 58848.0767 60404.0269  2.64%   121   30s
 11517  5119 60404.0254   28   85 58848.0767 60404.0269  2.64%   108   42s
 12461  5764 infeasible   51      58848.0767 60404.0269  2.64%   105   45s
 14870  6862 infeasible   39      58848.0767 60404.0269  2.64%   101   50s
 18233  8200 60403.9704   37   92 58848.0767 60404.0269  2.64%  97.8   55s

Cutting planes:
  MIR: 1
  Inf proof: 5

Explored 21210 nodes (2033097 simplex iterations) in 60.01 seconds (174.53 work units)
Thread count was 8 (of 8 available processors)

Solution count 2: 58848.1 58848.1 

Time limit reached
Best objective 5.884807669053e+04, best bound 6.040402689591e+04, gap 2.6440%
